DIMENSION :20
NODE_COORD_SECTION
1 17.848592638850164 -43.57050246756351
2 -70.03364586476056 -37.8488132022067
3 21.07035278351978 94.29567138819584
4 -3.5953687156486893 21.085138649521525
5 65.49353380723369 -8.41099656674902
6 82.60401273024729 54.8180805780668
7 -20.763083471170603 29.891716841863996
8 49.70635228225456 -50.365164890356965
9 71.30451842420783 -31.741945594676963
10 49.52548265258389 44.76773650101586
11 27.31137052106847 -60.016543142794234
12 -98.1095166003582 39.67196250621913
13 -14.275178314144398 -76.87196841389898
14 27.226690204876263 9.9581268799148
15 -14.283740932065143 -47.10870528682529
16 12.67650937732678 6.817320617484768
17 22.444832687083746 -59.775924517165755
18 0.4135407224170109 1.6879325053111671
19 -28.42872895604154 -11.39724353175886
20 78.40517550950429 -43.92250874679504
EOF
